NAME: sim-grid-B-15
TYPE: TSP
COMMENT: Semi-regular Grid
DIMENSION: 15
EDGE_WEIGHT_TYPE: EUC_2D
NODE_COORD_SECTION
1 900 50
2 1100 50
3 100 100
4 900 100
5 1100 300
6 1300 300
7 1450 300
8 550 550
9 750 550
10 1550 550
11 550 600
12 700 600
13 1500 600
14 650 800
15 1500 850
EOF
